40
    91    37    97    15    58   100    18    67    34    36    57    90    81    42    28    46    91    69    23    99    80    20    11    17    96    52    41    71    14    75    39    34    36    52     9    84    93    99    35   100
     7     3     8     6     6     5    10     7     7     2     2     3     5     6     4    10     2     1     9    10    10    10     4     3     8    10    10     2     4     4     9     8     5     2     8     6     5    10     8     1
     0   444   471   485   348     0   219   221   359   185     0    96   291   505   260     0     0   589     0     0     0   400   651     0   361   135   258     0   299     0     0   424   122     0   237   551     0     0     0   334
